(declare-fun c () String)
(declare-fun g () String)
(declare-fun b () String)
(declare-fun d () String)
(declare-fun f () String)
(declare-fun a () String)
(declare-fun h () String)
(assert (= (str.++ d "e" h "c") g))
(assert (= b (str.++ h "h" a f)))
(assert (= (str.++ d "g" b) (str.++ "h" f "b" c)))

(check-sat)
